Traveling Salesman Problem/TSP_generados/Aleatorio1620391113_14.tsp
NAME: Aleatorio1620391113_14.tsp
COMMENT: Randomly generated scenario
TYPE: TSP
DIMENSION: 14
EDGE_WEIGHT_TYPE: ATT
NODE_COORD_SECTION
1 17.06 48.41
2 13.04 3.32
3 28.03 44.43
4 47.69 29.84
5 17.12 26.32
6 43.2 41.25
7 38.91 44.94
8 9.16 39.9
9 7.48 29.43
10 45.59 34.09
11 13.08 35.84
12 32.88 31.51
13 12.63 25.92
14 21.35 2.11
