Traveling Salesman Problem/TSP_generados/Aleatorio1620391113_14.opt.tour
NAME: Aleatorio1620391113_14.opt.tour
COMMENT: Optimal solution for Aleatorio1620391113_14 (155.25679751488315)
TYPE: TOUR
DIMENSION: 14
TOUR_SECTION
1 8 11 9 13 5 2 14 12 4 10 6 7 3
-1
EOF
